peakDumbCharging = 33300; 
Machine = anon_enum(16); 
machineSpeed = [3700,3700,3700,3700,3700,3700,3700,3700,3700,3700,3700,3700,3700,3700,3700,3700]; 
machineLoad = [3700,3700,3700,3700,3700,3700,3700,3700,3700,3700,3700,3700,3700,3700,3700,3700]; 
Car = anon_enum(36); 
demandCar = [12200,5920,3880,4760,11720,10920,13400,6520,4040,6720,4120,7880,720,5080,5120,6000,13720,16240,6240,8040,4280,4120,1760,4040,5000,13360,14200,8840,13480,11600,30320,4720,13400,5280,10240,12280]; 
arrivalCar = [71,68,68,64,63,62,62,62,61,60,60,55,55,53,52,51,51,51,50,49,49,48,48,46,46,45,45,45,44,43,42,42,39,38,38,36]; 
departureCar = [75,72,71,69,68,71,67,74,63,65,62,63,60,61,56,54,63,63,54,53,52,51,50,50,50,50,50,48,52,47,54,47,45,42,44,41]; 
